# 42264
param n := 30;
param s := 1;
set E :=  (0,17) (1,7) (2,8) (3,24) (3,26) (4,5) (4,6) (5,7) (5,15) (5,24) (6,12) (6,13) (6,28) (8,20) (8,24) (8,27) (9,29) (10,23) (11,16) (11,24) (13,14) (13,24) (14,25) (16,17) (16,21) (16,22) (16,23) (17,29) (18,22) (19,29) (20,22) (20,27);
